letting n =  10
letting blocks =  [[1, 2], [1, 4], [1, 5], [1, 6], [1, 9], [1, 10], [2, 1], [2, 4], [2, 5], [2, 7], [2, 8], [3, 1], [3, 2], [3, 3], [3, 7], [3, 9], [3, 10], [4, 1], [4, 4], [4, 7], [4, 10], [5, 1], [5, 2], [5, 6], [5, 7], [5, 8], [5, 10], [6, 1], [6, 4], [6, 5], [6, 7], [6, 8], [6, 10], [7, 2], [7, 3], [7, 5], [7, 6], [7, 7], [8, 2], [8, 3], [8, 8], [8, 10], [9, 1], [9, 2], [9, 4], [9, 6], [9, 8], [9, 9], [10, 4], [10, 5], [10, 6], [10, 9]]
